p cep 144 3089
1 3
1 4
1 5
1 12
1 14
1 15
1 16
1 17
1 18
1 20
1 23
1 28
1 29
1 30
1 31
1 32
1 34
1 38
1 41
1 47
1 48
1 50
1 54
1 56
1 58
1 60
1 61
1 63
1 64
1 65
1 71
1 72
1 74
1 78
1 79
1 81
1 82
1 85
1 86
1 87
1 88
1 89
1 90
1 91
1 92
1 94
1 97
1 98
1 99
1 100
1 101
1 102
1 104
1 105
1 107
1 108
1 109
1 110
1 113
1 114
1 116
1 117
1 119
1 121
1 123
1 127
1 129
1 131
1 132
1 136
1 137
1 138
1 139
1 140
1 141
2 19
2 21
2 24
2 33
2 35
2 40
2 44
2 52
2 53
2 68
2 70
2 73
2 76
2 77
2 80
2 95
2 115
2 118
2 122
2 125
2 135
3 4
3 5
3 12
3 14
3 15
3 16
3 17
3 18
3 20
3 23
3 28
3 29
3 30
3 32
3 34
3 38
3 41
3 47
3 48
3 50
3 54
3 56
3 58
3 60
3 61
3 63
3 64
3 65
3 71
3 72
3 74
3 78
3 79
3 81
3 82
3 85
3 86
3 87
3 88
3 89
3 90
3 91
3 92
3 94
3 97
3 98
3 99
3 100
3 101
3 102
3 104
3 105
3 107
3 108
3 109
3 110
3 113
3 114
3 116
3 117
3 119
3 121
3 123
3 127
3 129
3 131
3 132
3 136
3 137
3 138
3 139
3 140
3 141
4 5
4 12
4 14
4 15
4 16
4 17
4 18
4 20
4 23
4 28
4 29
4 30
4 32
4 34
4 38
4 41
4 47
4 48
4 54
4 56
4 58
4 60
4 61
4 63
4 64
4 65
4 71
4 72
4 74
4 78
4 79
4 81
4 82
4 85
4 86
4 87
4 88
4 89
4 90
4 91
4 92
4 94
4 97
4 98
4 99
4 100
4 101
4 102
4 104
4 105
4 107
4 108
4 109
4 110
4 113
4 114
4 116
4 117
4 119
4 121
4 123
4 127
4 129
4 131
4 132
4 136
4 137
4 138
4 139
4 140
4 141
5 12
5 14
5 15
5 16
5 17
5 18
5 20
5 23
5 28
5 29
5 30
5 32
5 34
5 38
5 41
5 47
5 48
5 54
5 56
5 58
5 60
5 61
5 63
5 64
5 65
5 71
5 72
5 74
5 78
5 79
5 81
5 82
5 85
5 86
5 87
5 88
5 89
5 90
5 91
5 92
5 94
5 97
5 98
5 99
5 100
5 101
5 102
5 104
5 105
5 107
5 108
5 109
5 110
5 113
5 114
5 116
5 117
5 119
5 121
5 123
5 127
5 129
5 131
5 132
5 136
5 137
5 138
5 139
5 140
5 141
6 7
6 22
6 39
6 43
6 111
7 11
7 22
7 39
7 43
7 111
7 143
8 10
8 25
8 62
8 67
8 128
8 144
9 37
9 46
9 112
9 120
10 13
10 26
10 27
10 45
10 62
10 67
10 69
10 124
10 128
10 133
10 144
11 22
11 96
11 106
11 143
12 14
12 15
12 16
12 17
12 18
12 20
12 23
12 28
12 29
12 30
12 32
12 34
12 38
12 41
12 47
12 48
12 54
12 56
12 58
12 60
12 61
12 63
12 64
12 65
12 71
12 72
12 74
12 78
12 79
12 81
12 82
12 85
12 86
12 87
12 88
12 89
12 90
12 91
12 92
12 94
12 97
12 98
12 99
12 100
12 101
12 102
12 104
12 105
12 107
12 108
12 109
12 110
12 113
12 114
12 116
12 117
12 119
12 121
12 123
12 127
12 129
12 131
12 132
12 136
12 137
12 138
12 139
12 140
12 141
13 25
13 26
13 27
13 45
13 67
13 69
13 124
13 144
14 15
14 16
14 17
14 18
14 20
14 23
14 28
14 29
14 30
14 31
14 32
14 34
14 38
14 41
14 47
14 48
14 50
14 54
14 56
14 58
14 60
14 61
14 63
14 64
14 65
14 71
14 72
14 74
14 78
14 79
14 81
14 82
14 85
14 86
14 87
14 88
14 89
14 90
14 91
14 92
14 94
14 97
14 98
14 99
14 100
14 101
14 102
14 104
14 105
14 107
14 108
14 109
14 110
14 113
14 114
14 116
14 117
14 119
14 121
14 123
14 127
14 129
14 131
14 132
14 136
14 137
14 138
14 139
14 140
14 141
15 16
15 17
15 18
15 20
15 23
15 28
15 29
15 30
15 32
15 34
15 38
15 41
15 47
15 48
15 54
15 56
15 58
15 60
15 61
15 63
15 64
15 65
15 71
15 72
15 74
15 78
15 79
15 81
15 82
15 85
15 86
15 87
15 88
15 89
15 90
15 91
15 92
15 94
15 97
15 98
15 99
15 100
15 101
15 102
15 104
15 105
15 107
15 108
15 109
15 110
15 113
15 114
15 116
15 117
15 119
15 121
15 123
15 127
15 129
15 131
15 132
15 136
15 137
15 138
15 139
15 140
15 141
16 17
16 18
16 20
16 23
16 28
16 29
16 30
16 32
16 34
16 38
16 41
16 47
16 48
16 54
16 56
16 58
16 60
16 61
16 63
16 64
16 65
16 71
16 72
16 74
16 78
16 79
16 81
16 82
16 85
16 86
16 87
16 88
16 89
16 90
16 91
16 92
16 94
16 97
16 98
16 99
16 100
16 101
16 102
16 104
16 105
16 107
16 108
16 109
16 110
16 113
16 114
16 116
16 117
16 119
16 121
16 123
16 127
16 129
16 131
16 132
16 136
16 137
16 138
16 139
16 140
16 141
17 18
17 20
17 23
17 28
17 29
17 30
17 32
17 34
17 38
17 41
17 47
17 48
17 54
17 56
17 58
17 60
17 61
17 63
17 64
17 65
17 71
17 72
17 74
17 78
17 79
17 81
17 82
17 85
17 86
17 87
17 88
17 89
17 90
17 91
17 92
17 94
17 97
17 98
17 99
17 100
17 101
17 102
17 104
17 105
17 107
17 108
17 109
17 110
17 113
17 114
17 116
17 117
17 119
17 121
17 123
17 127
17 129
17 131
17 132
17 136
17 137
17 138
17 139
17 140
17 141
18 20
18 23
18 28
18 29
18 30
18 32
18 34
18 38
18 41
18 47
18 48
18 50
18 54
18 56
18 58
18 60
18 61
18 63
18 64
18 65
18 71
18 72
18 74
18 78
18 79
18 81
18 82
18 85
18 86
18 87
18 88
18 89
18 90
18 91
18 92
18 94
18 97
18 98
18 99
18 100
18 101
18 102
18 104
18 105
18 107
18 108
18 109
18 110
18 113
18 114
18 116
18 117
18 119
18 121
18 123
18 127
18 129
18 131
18 132
18 136
18 137
18 138
18 139
18 140
18 141
19 21
19 24
19 33
19 40
19 44
19 52
19 53
19 68
19 70
19 73
19 76
19 77
19 80
19 93
19 95
19 115
19 118
19 122
19 125
19 135
20 23
20 28
20 29
20 30
20 32
20 34
20 38
20 41
20 47
20 48
20 54
20 56
20 58
20 60
20 61
20 63
20 64
20 65
20 71
20 72
20 74
20 78
20 79
20 81
20 82
20 85
20 86
20 87
20 88
20 89
20 90
20 91
20 92
20 94
20 97
20 98
20 99
20 100
20 101
20 102
20 104
20 105
20 107
20 108
20 109
20 110
20 113
20 114
20 116
20 117
20 119
20 121
20 123
20 127
20 129
20 131
20 132
20 136
20 137
20 138
20 139
20 140
20 141
21 24
21 33
21 35
21 40
21 44
21 49
21 52
21 53
21 68
21 70
21 73
21 76
21 77
21 80
21 93
21 95
21 115
21 118
21 122
21 125
21 135
22 39
22 43
22 111
22 143
23 28
23 29
23 30
23 32
23 34
23 38
23 41
23 47
23 48
23 54
23 56
23 58
23 60
23 61
23 63
23 64
23 65
23 71
23 72
23 74
23 78
23 79
23 81
23 82
23 85
23 86
23 87
23 88
23 89
23 90
23 91
23 92
23 94
23 97
23 98
23 99
23 100
23 101
23 102
23 104
23 105
23 107
23 108
23 109
23 110
23 113
23 114
23 116
23 117
23 119
23 121
23 123
23 127
23 129
23 131
23 132
23 136
23 137
23 138
23 139
23 140
23 141
24 33
24 35
24 40
24 44
24 52
24 53
24 68
24 70
24 73
24 76
24 77
24 80
24 95
24 115
24 118
24 122
24 125
24 135
25 26
25 27
25 45
25 67
25 69
25 124
25 144
26 27
26 45
26 67
26 69
26 124
26 144
27 45
27 67
27 69
27 124
27 144
28 29
28 30
28 32
28 34
28 38
28 41
28 47
28 48
28 54
28 56
28 58
28 60
28 61
28 63
28 64
28 65
28 71
28 72
28 74
28 78
28 79
28 81
28 82
28 85
28 86
28 87
28 88
28 89
28 90
28 91
28 92
28 94
28 97
28 98
28 99
28 100
28 101
28 102
28 104
28 105
28 107
28 108
28 109
28 110
28 113
28 114
28 116
28 117
28 119
28 121
28 123
28 127
28 129
28 131
28 132
28 136
28 137
28 138
28 139
28 140
28 141
29 30
29 32
29 34
29 38
29 41
29 47
29 48
29 54
29 56
29 58
29 60
29 61
29 63
29 64
29 65
29 71
29 72
29 74
29 78
29 79
29 81
29 82
29 85
29 86
29 88
29 89
29 90
29 91
29 92
29 94
29 97
29 98
29 99
29 100
29 101
29 102
29 104
29 105
29 107
29 108
29 110
29 113
29 114
29 116
29 117
29 119
29 121
29 123
29 127
29 129
29 132
29 136
29 137
29 138
29 139
29 140
29 141
30 32
30 34
30 38
30 41
30 47
30 48
30 54
30 56
30 58
30 60
30 61
30 63
30 64
30 65
30 71
30 72
30 74
30 78
30 79
30 81
30 82
30 85
30 86
30 87
30 88
30 89
30 90
30 91
30 92
30 94
30 97
30 98
30 99
30 100
30 101
30 102
30 104
30 105
30 107
30 108
30 109
30 110
30 113
30 114
30 116
30 117
30 119
30 121
30 123
30 127
30 129
30 131
30 132
30 136
30 137
30 138
30 139
30 140
30 141
31 47
31 48
31 60
31 65
31 97
31 98
31 101
31 108
31 114
31 121
31 131
31 138
31 141
32 34
32 38
32 41
32 47
32 48
32 54
32 56
32 58
32 60
32 61
32 63
32 64
32 65
32 71
32 72
32 74
32 78
32 79
32 81
32 82
32 85
32 86
32 87
32 88
32 89
32 90
32 91
32 92
32 94
32 97
32 98
32 99
32 100
32 101
32 102
32 104
32 105
32 107
32 108
32 109
32 110
32 113
32 114
32 116
32 117
32 119
32 121
32 123
32 127
32 129
32 131
32 132
32 136
32 137
32 138
32 139
32 140
32 141
33 35
33 40
33 44
33 49
33 52
33 53
33 68
33 70
33 73
33 76
33 77
33 80
33 93
33 95
33 115
33 118
33 122
33 125
33 135
34 38
34 41
34 47
34 48
34 54
34 56
34 58
34 60
34 61
34 63
34 64
34 65
34 71
34 72
34 74
34 78
34 79
34 81
34 82
34 85
34 86
34 87
34 88
34 89
34 90
34 91
34 92
34 94
34 97
34 98
34 99
34 100
34 101
34 102
34 104
34 105
34 107
34 108
34 109
34 110
34 113
34 114
34 116
34 117
34 119
34 121
34 123
34 127
34 129
34 131
34 132
34 136
34 137
34 138
34 139
34 140
34 141
35 44
35 49
35 52
35 53
35 68
35 70
35 73
35 76
35 77
35 80
35 93
35 95
35 115
35 118
35 122
35 125
35 135
36 55
36 126
37 46
37 112
37 120
38 41
38 47
38 48
38 54
38 56
38 58
38 60
38 61
38 63
38 64
38 65
38 71
38 72
38 74
38 78
38 79
38 81
38 82
38 85
38 86
38 87
38 88
38 89
38 90
38 91
38 92
38 94
38 97
38 98
38 99
38 100
38 101
38 102
38 104
38 105
38 107
38 108
38 109
38 110
38 113
38 114
38 116
38 117
38 119
38 121
38 123
38 127
38 129
38 131
38 132
38 136
38 137
38 138
38 139
38 140
38 141
39 43
39 111
40 44
40 52
40 53
40 68
40 70
40 73
40 76
40 77
40 80
40 95
40 115
40 118
40 122
40 125
40 135
41 47
41 48
41 54
41 56
41 58
41 60
41 61
41 63
41 64
41 65
41 71
41 72
41 74
41 78
41 79
41 81
41 82
41 85
41 86
41 87
41 88
41 89
41 90
41 91
41 92
41 94
41 97
41 98
41 99
41 100
41 101
41 102
41 104
41 105
41 107
41 108
41 109
41 110
41 113
41 114
41 116
41 117
41 119
41 121
41 123
41 127
41 129
41 131
41 132
41 136
41 137
41 138
41 139
41 140
41 141
43 111
44 49
44 52
44 53
44 68
44 70
44 73
44 76
44 77
44 80
44 93
44 95
44 115
44 118
44 122
44 125
44 135
45 67
45 69
45 124
45 128
45 144
46 84
46 103
46 112
46 120
47 48
47 54
47 56
47 58
47 60
47 61
47 63
47 64
47 65
47 71
47 72
47 74
47 78
47 79
47 81
47 82
47 85
47 86
47 87
47 88
47 89
47 90
47 91
47 92
47 94
47 97
47 98
47 99
47 100
47 101
47 102
47 104
47 105
47 107
47 108
47 109
47 110
47 113
47 114
47 116
47 117
47 119
47 121
47 123
47 127
47 129
47 131
47 132
47 136
47 137
47 138
47 139
47 140
47 141
48 54
48 56
48 58
48 60
48 61
48 63
48 64
48 65
48 71
48 72
48 74
48 78
48 79
48 81
48 82
48 85
48 86
48 87
48 88
48 89
48 90
48 91
48 92
48 94
48 97
48 98
48 99
48 100
48 101
48 102
48 104
48 105
48 107
48 108
48 109
48 110
48 113
48 114
48 116
48 117
48 119
48 121
48 123
48 127
48 129
48 131
48 132
48 136
48 137
48 138
48 139
48 140
48 141
49 52
49 73
49 93
49 118
49 135
50 60
50 64
50 65
50 74
50 92
50 94
50 97
50 98
50 99
50 104
50 113
50 121
50 138
50 141
52 53
52 68
52 70
52 73
52 76
52 77
52 80
52 93
52 95
52 109
52 115
52 118
52 122
52 125
52 135
53 68
53 70
53 73
53 76
53 77
53 80
53 93
53 95
53 115
53 118
53 122
53 125
53 135
54 56
54 58
54 60
54 61
54 63
54 64
54 65
54 71
54 72
54 74
54 78
54 79
54 81
54 82
54 85
54 86
54 87
54 88
54 89
54 90
54 91
54 92
54 94
54 97
54 98
54 99
54 100
54 101
54 102
54 104
54 105
54 107
54 108
54 109
54 110
54 113
54 114
54 116
54 117
54 119
54 121
54 123
54 127
54 129
54 131
54 132
54 136
54 137
54 138
54 139
54 140
54 141
55 126
56 58
56 60
56 61
56 63
56 64
56 65
56 71
56 72
56 74
56 78
56 79
56 81
56 82
56 85
56 86
56 87
56 88
56 89
56 90
56 91
56 92
56 94
56 97
56 98
56 99
56 100
56 101
56 102
56 104
56 105
56 107
56 108
56 109
56 110
56 113
56 114
56 116
56 117
56 119
56 121
56 123
56 127
56 129
56 131
56 132
56 136
56 137
56 138
56 139
56 140
56 141
58 60
58 61
58 63
58 64
58 65
58 71
58 72
58 74
58 78
58 79
58 81
58 82
58 85
58 86
58 87
58 88
58 89
58 90
58 91
58 92
58 94
58 97
58 98
58 99
58 100
58 101
58 102
58 104
58 105
58 107
58 108
58 109
58 110
58 113
58 114
58 116
58 117
58 119
58 121
58 123
58 127
58 129
58 131
58 132
58 136
58 137
58 138
58 139
58 140
58 141
60 61
60 63
60 64
60 65
60 71
60 72
60 74
60 78
60 79
60 81
60 82
60 85
60 86
60 87
60 88
60 89
60 90
60 91
60 92
60 94
60 97
60 98
60 99
60 100
60 101
60 102
60 104
60 105
60 107
60 108
60 109
60 110
60 113
60 114
60 116
60 117
60 119
60 121
60 123
60 127
60 129
60 131
60 132
60 136
60 137
60 138
60 139
60 140
60 141
61 63
61 64
61 65
61 71
61 72
61 74
61 78
61 79
61 81
61 82
61 85
61 86
61 87
61 88
61 89
61 90
61 91
61 92
61 94
61 97
61 98
61 99
61 100
61 101
61 102
61 104
61 105
61 107
61 108
61 109
61 110
61 113
61 114
61 116
61 117
61 119
61 121
61 123
61 127
61 129
61 131
61 132
61 136
61 137
61 138
61 139
61 140
61 141
62 67
62 128
62 133
62 144
63 64
63 65
63 71
63 72
63 74
63 78
63 79
63 81
63 82
63 85
63 86
63 87
63 88
63 89
63 90
63 91
63 92
63 94
63 97
63 98
63 99
63 100
63 101
63 102
63 104
63 105
63 107
63 108
63 109
63 110
63 113
63 114
63 116
63 117
63 119
63 121
63 123
63 127
63 129
63 131
63 132
63 136
63 137
63 138
63 139
63 140
63 141
64 65
64 71
64 72
64 73
64 74
64 78
64 79
64 81
64 82
64 85
64 86
64 87
64 88
64 89
64 90
64 91
64 92
64 94
64 97
64 98
64 99
64 100
64 101
64 102
64 104
64 105
64 107
64 108
64 109
64 110
64 113
64 114
64 116
64 117
64 119
64 121
64 123
64 127
64 129
64 131
64 132
64 136
64 137
64 138
64 139
64 140
64 141
65 71
65 72
65 74
65 78
65 79
65 81
65 82
65 85
65 86
65 87
65 88
65 89
65 90
65 91
65 92
65 94
65 97
65 98
65 99
65 100
65 101
65 102
65 104
65 105
65 107
65 108
65 109
65 110
65 113
65 114
65 116
65 117
65 119
65 121
65 123
65 127
65 129
65 131
65 132
65 136
65 137
65 138
65 139
65 140
65 141
67 69
67 124
67 128
67 133
67 144
68 70
68 73
68 76
68 77
68 80
68 93
68 95
68 115
68 118
68 122
68 125
68 135
69 124
69 144
70 73
70 76
70 77
70 80
70 93
70 95
70 115
70 118
70 122
70 125
70 135
71 72
71 74
71 78
71 79
71 81
71 82
71 85
71 86
71 87
71 88
71 89
71 90
71 91
71 92
71 94
71 97
71 98
71 99
71 100
71 101
71 102
71 104
71 105
71 107
71 108
71 109
71 110
71 113
71 114
71 116
71 117
71 119
71 121
71 123
71 127
71 129
71 131
71 132
71 136
71 137
71 138
71 139
71 140
71 141
72 74
72 78
72 79
72 81
72 82
72 85
72 86
72 87
72 88
72 89
72 90
72 91
72 92
72 94
72 97
72 98
72 99
72 100
72 101
72 102
72 104
72 105
72 107
72 108
72 109
72 110
72 113
72 114
72 116
72 117
72 119
72 121
72 123
72 127
72 129
72 131
72 132
72 136
72 137
72 138
72 139
72 140
72 141
73 76
73 77
73 80
73 93
73 95
73 115
73 118
73 122
73 125
73 135
74 78
74 79
74 81
74 82
74 85
74 86
74 87
74 88
74 89
74 90
74 91
74 92
74 94
74 97
74 98
74 99
74 100
74 101
74 102
74 104
74 105
74 107
74 108
74 109
74 110
74 113
74 114
74 116
74 117
74 119
74 121
74 123
74 127
74 129
74 131
74 132
74 136
74 137
74 138
74 139
74 140
74 141
75 134
75 142
76 77
76 80
76 95
76 115
76 118
76 122
76 125
76 135
77 80
77 95
77 115
77 118
77 122
77 125
77 135
78 79
78 81
78 82
78 85
78 86
78 87
78 88
78 89
78 90
78 91
78 92
78 94
78 97
78 98
78 99
78 100
78 101
78 102
78 104
78 105
78 107
78 108
78 109
78 110
78 113
78 114
78 116
78 117
78 119
78 121
78 123
78 127
78 129
78 131
78 132
78 136
78 137
78 138
78 139
78 140
78 141
79 81
79 82
79 85
79 86
79 87
79 88
79 89
79 90
79 91
79 92
79 94
79 97
79 98
79 99
79 100
79 101
79 102
79 104
79 105
79 107
79 108
79 109
79 110
79 113
79 114
79 116
79 117
79 119
79 121
79 123
79 127
79 129
79 131
79 132
79 136
79 137
79 138
79 139
79 140
79 141
80 93
80 95
80 115
80 118
80 122
80 125
80 135
81 82
81 85
81 86
81 87
81 88
81 89
81 90
81 91
81 92
81 94
81 97
81 98
81 99
81 100
81 101
81 102
81 104
81 105
81 107
81 108
81 109
81 110
81 113
81 114
81 116
81 117
81 119
81 121
81 123
81 127
81 129
81 131
81 132
81 136
81 137
81 138
81 139
81 140
81 141
82 85
82 86
82 87
82 88
82 89
82 90
82 91
82 92
82 94
82 97
82 98
82 99
82 100
82 101
82 102
82 104
82 105
82 107
82 108
82 109
82 110
82 113
82 114
82 116
82 117
82 119
82 121
82 123
82 127
82 129
82 131
82 132
82 136
82 137
82 138
82 139
82 140
82 141
83 130
85 86
85 87
85 88
85 89
85 90
85 91
85 92
85 94
85 97
85 98
85 99
85 100
85 101
85 102
85 104
85 105
85 107
85 108
85 109
85 110
85 113
85 114
85 116
85 117
85 119
85 121
85 123
85 127
85 129
85 131
85 132
85 136
85 137
85 138
85 139
85 140
85 141
86 87
86 88
86 89
86 90
86 91
86 92
86 94
86 97
86 98
86 99
86 100
86 101
86 102
86 104
86 105
86 107
86 108
86 109
86 110
86 113
86 114
86 116
86 117
86 119
86 121
86 123
86 127
86 129
86 131
86 132
86 136
86 137
86 138
86 139
86 140
86 141
87 88
87 89
87 90
87 91
87 92
87 94
87 97
87 98
87 99
87 100
87 101
87 102
87 104
87 105
87 107
87 108
87 109
87 110
87 113
87 114
87 116
87 117
87 119
87 121
87 123
87 127
87 129
87 131
87 132
87 136
87 137
87 138
87 139
87 140
87 141
88 89
88 90
88 91
88 92
88 94
88 97
88 98
88 99
88 100
88 101
88 102
88 104
88 105
88 107
88 108
88 109
88 110
88 113
88 114
88 116
88 117
88 119
88 121
88 123
88 127
88 129
88 131
88 132
88 136
88 137
88 138
88 139
88 140
88 141
89 90
89 91
89 92
89 94
89 97
89 98
89 99
89 100
89 101
89 102
89 104
89 105
89 107
89 108
89 109
89 110
89 113
89 114
89 116
89 117
89 119
89 121
89 123
89 127
89 129
89 131
89 132
89 136
89 137
89 138
89 139
89 140
89 141
90 91
90 92
90 94
90 97
90 98
90 99
90 100
90 101
90 102
90 104
90 105
90 107
90 108
90 109
90 110
90 113
90 114
90 116
90 117
90 119
90 121
90 123
90 127
90 129
90 132
90 136
90 137
90 138
90 139
90 140
90 141
91 92
91 94
91 97
91 98
91 99
91 100
91 101
91 102
91 104
91 105
91 107
91 108
91 109
91 110
91 113
91 114
91 116
91 117
91 119
91 121
91 123
91 127
91 129
91 132
91 136
91 137
91 138
91 139
91 140
91 141
92 94
92 97
92 98
92 99
92 100
92 101
92 102
92 104
92 105
92 107
92 108
92 109
92 110
92 113
92 114
92 116
92 117
92 119
92 121
92 123
92 127
92 129
92 131
92 132
92 136
92 137
92 138
92 139
92 140
92 141
93 95
93 118
93 122
93 125
93 135
94 97
94 98
94 99
94 100
94 101
94 102
94 104
94 105
94 107
94 108
94 109
94 110
94 113
94 114
94 116
94 117
94 119
94 121
94 123
94 127
94 129
94 131
94 132
94 136
94 137
94 138
94 139
94 140
94 141
95 115
95 118
95 122
95 125
95 135
96 106
96 143
97 98
97 99
97 100
97 101
97 102
97 104
97 105
97 107
97 108
97 109
97 110
97 113
97 114
97 116
97 117
97 119
97 121
97 123
97 127
97 129
97 131
97 132
97 136
97 137
97 138
97 139
97 140
97 141
98 99
98 100
98 101
98 102
98 104
98 105
98 107
98 108
98 109
98 110
98 113
98 114
98 116
98 117
98 119
98 121
98 123
98 127
98 129
98 131
98 132
98 136
98 137
98 138
98 139
98 140
98 141
99 100
99 101
99 102
99 104
99 105
99 107
99 108
99 109
99 110
99 113
99 114
99 116
99 117
99 119
99 121
99 123
99 127
99 129
99 131
99 132
99 136
99 137
99 138
99 139
99 140
99 141
100 101
100 102
100 104
100 105
100 107
100 108
100 109
100 110
100 113
100 114
100 116
100 117
100 119
100 121
100 123
100 127
100 129
100 131
100 132
100 136
100 137
100 138
100 139
100 140
100 141
101 102
101 104
101 105
101 107
101 108
101 109
101 110
101 113
101 114
101 116
101 117
101 119
101 121
101 123
101 127
101 129
101 131
101 132
101 136
101 137
101 138
101 139
101 140
101 141
102 104
102 105
102 107
102 108
102 109
102 110
102 113
102 114
102 116
102 117
102 119
102 121
102 123
102 127
102 129
102 131
102 132
102 136
102 137
102 138
102 139
102 140
102 141
104 105
104 107
104 108
104 109
104 110
104 113
104 114
104 116
104 117
104 119
104 121
104 123
104 127
104 129
104 131
104 132
104 136
104 137
104 138
104 139
104 140
104 141
105 107
105 108
105 109
105 110
105 113
105 114
105 116
105 117
105 119
105 121
105 123
105 127
105 129
105 131
105 132
105 136
105 137
105 138
105 139
105 140
105 141
106 143
107 108
107 109
107 110
107 113
107 114
107 116
107 117
107 119
107 121
107 123
107 127
107 129
107 131
107 132
107 136
107 137
107 138
107 139
107 140
107 141
108 109
108 110
108 113
108 114
108 116
108 117
108 119
108 121
108 123
108 127
108 129
108 131
108 132
108 136
108 137
108 138
108 139
108 140
108 141
109 110
109 113
109 114
109 116
109 117
109 119
109 121
109 123
109 127
109 129
109 131
109 132
109 136
109 137
109 138
109 139
109 140
109 141
110 113
110 114
110 116
110 117
110 119
110 121
110 123
110 127
110 129
110 131
110 132
110 136
110 137
110 138
110 139
110 140
110 141
112 120
113 114
113 116
113 117
113 119
113 121
113 123
113 127
113 129
113 131
113 132
113 136
113 137
113 138
113 139
113 140
113 141
114 116
114 117
114 119
114 121
114 123
114 127
114 129
114 131
114 132
114 136
114 137
114 138
114 139
114 140
114 141
115 118
115 122
115 125
115 135
116 117
116 119
116 121
116 123
116 127
116 129
116 131
116 132
116 136
116 137
116 138
116 139
116 140
116 141
117 119
117 121
117 123
117 127
117 129
117 131
117 132
117 136
117 137
117 138
117 139
117 140
117 141
118 122
118 125
118 135
119 121
119 123
119 127
119 129
119 131
119 132
119 136
119 137
119 138
119 139
119 140
119 141
121 123
121 127
121 129
121 131
121 132
121 136
121 137
121 138
121 139
121 140
121 141
122 125
122 135
123 127
123 129
123 131
123 132
123 136
123 137
123 138
123 139
123 140
123 141
124 144
125 135
127 129
127 132
127 136
127 137
127 138
127 139
127 140
127 141
128 133
129 131
129 132
129 136
129 137
129 138
129 139
129 140
129 141
131 132
131 136
131 137
131 138
131 139
131 140
131 141
132 136
132 137
132 138
132 139
132 140
132 141
134 142
136 137
136 138
136 139
136 140
136 141
137 138
137 139
137 140
137 141
138 139
138 140
138 141
139 140
139 141
140 141
